clingo version 4.2.1
Reading from akarispaces.lp ...
Solving...
Answer: 1
lamp(0,0) lamp(1,1) lamp(2,2) lamp(3,3)
SATISFIABLE

Models       : 1+    
Calls        : 1
Time         : 0.007s (Solving: 0.00s 1st Model: 0.00s Unsat: 0.00s)
CPU Time     : 0.000s

